10
2147483647 47 57 33 67 8 34 26 1 73 
47 2147483647 85 95 37 47 86 79 95 89 
57 85 2147483647 25 95 51 100 91 42 23 
33 95 25 2147483647 79 80 62 32 23 87 
67 37 95 79 2147483647 66 87 20 20 7 
8 47 51 80 66 2147483647 59 66 26 20 
34 86 100 62 87 59 2147483647 40 26 15 
26 79 91 32 20 66 40 2147483647 97 71 
1 95 42 23 20 26 26 97 2147483647 61 
73 89 23 87 7 20 15 71 61 2147483647 
